objective value:                    -5.19214512520067
h-1,12                                           0.01 	(obj:0)
h-1,13                                           0.01 	(obj:0)
h-1,32                                           0.01 	(obj:0)
h-1,34                                           0.01 	(obj:0)
h-1,35                                           0.01 	(obj:0)
h-1,36                                           0.01 	(obj:0)
h-1,37                                           0.01 	(obj:0)
h-1,38                                           0.01 	(obj:0)
h-1,39                                           0.01 	(obj:0)
h-1,44                                           0.01 	(obj:0)
h-1,45                                           0.01 	(obj:0)
h-1,50                                           0.01 	(obj:0)
h-1,51                                           0.01 	(obj:0)
h-1,60                                           0.01 	(obj:0)
h-1,62                                           0.01 	(obj:0)
h-1,63                                           0.01 	(obj:0)
h-1,64                                           0.01 	(obj:0)
h-1,65                                           0.01 	(obj:0)
h-1,66                                           0.01 	(obj:0)
h-1,67                                           0.01 	(obj:0)
h-1,68                                           0.01 	(obj:0)
h-1,80                                           0.01 	(obj:0)
h-1,81                                           0.01 	(obj:0)
h-1,86                                           0.01 	(obj:0)
h-1,87                                           0.01 	(obj:0)
h-1,88                                           0.01 	(obj:0)
h-1,92                                           0.01 	(obj:0)
h-1,93                                           0.01 	(obj:0)
h-1,94                                           0.01 	(obj:0)
h-1,95                                           0.01 	(obj:0)
h-1,96                                           0.01 	(obj:0)
h-1,97                                           0.01 	(obj:0)
h-1,98                                           0.01 	(obj:0)
h-1,99                                           0.01 	(obj:0)
h-1,100                                          0.01 	(obj:0)
h-1,108                                          0.01 	(obj:0)
h-1,120                                          0.01 	(obj:0)
h-1,121                                          0.01 	(obj:0)
h-1,122                                          0.01 	(obj:0)
h-1,123                                          0.01 	(obj:0)
h-1,124                                          0.01 	(obj:0)
h-1,125                                          0.01 	(obj:0)
h-1,126                                          0.01 	(obj:0)
h-1,127                                          0.01 	(obj:0)
h-1,128                             0.159019613862038 	(obj:0)
h-1,129                                             1 	(obj:0)
h-1,130                             0.437450984716415 	(obj:0)
h-1,131                                          0.01 	(obj:0)
h-1,132                                          0.01 	(obj:0)
h-1,139                                          0.01 	(obj:0)
h-1,143                                          0.01 	(obj:0)
h-1,147                                          0.01 	(obj:0)
h-1,148                                          0.01 	(obj:0)
h-1,149                                          0.01 	(obj:0)
h-1,150                                          0.01 	(obj:0)
h-1,151                                          0.01 	(obj:0)
h-1,152                                          0.01 	(obj:0)
h-1,153                                          0.01 	(obj:0)
h-1,154                                          0.01 	(obj:0)
h-1,155                                          0.01 	(obj:0)
h-1,156                             0.351176480054855 	(obj:0)
h-1,157                             0.998235294818878 	(obj:0)
h-1,158                             0.331568638086319 	(obj:0)
h-1,162                                          0.01 	(obj:0)
h-1,165                                          0.01 	(obj:0)
h-1,170                                          0.01 	(obj:0)
h-1,171                                          0.01 	(obj:0)
h-1,172                                          0.01 	(obj:0)
h-1,173                                          0.01 	(obj:0)
h-1,174                                          0.01 	(obj:0)
h-1,175                                          0.01 	(obj:0)
h-1,176                                          0.01 	(obj:0)
h-1,177                                          0.01 	(obj:0)
h-1,178                                          0.01 	(obj:0)
h-1,179                                          0.01 	(obj:0)
h-1,180                                          0.01 	(obj:0)
h-1,181                                          0.01 	(obj:0)
h-1,182                                          0.01 	(obj:0)
h-1,183                                          0.01 	(obj:0)
h-1,184                             0.539411792755127 	(obj:0)
h-1,185                             0.955098042488098 	(obj:0)
h-1,197                                          0.01 	(obj:0)
h-1,198                                          0.01 	(obj:0)
h-1,199                                          0.01 	(obj:0)
h-1,200                                          0.01 	(obj:0)
h-1,201                                          0.01 	(obj:0)
h-1,202                                          0.01 	(obj:0)
h-1,203                                          0.01 	(obj:0)
h-1,204                                          0.01 	(obj:0)
h-1,205                                          0.01 	(obj:0)
h-1,206                                          0.01 	(obj:0)
h-1,207                                          0.01 	(obj:0)
h-1,209                                          0.01 	(obj:0)
h-1,211                             0.166470592617989 	(obj:0)
h-1,212                              0.94686274766922 	(obj:0)
h-1,213                             0.578235318660736 	(obj:0)
h-1,214                                          0.01 	(obj:0)
h-1,215                                          0.01 	(obj:0)
h-1,218                                          0.01 	(obj:0)
h-1,223                                          0.01 	(obj:0)
h-1,224                                          0.01 	(obj:0)
h-1,225                                          0.01 	(obj:0)
h-1,226                                          0.01 	(obj:0)
h-1,227                                          0.01 	(obj:0)
h-1,228                                          0.01 	(obj:0)
h-1,229                                          0.01 	(obj:0)
h-1,230                                          0.01 	(obj:0)
h-1,231                                          0.01 	(obj:0)
h-1,232                                          0.01 	(obj:0)
h-1,233                                          0.01 	(obj:0)
h-1,234                                          0.01 	(obj:0)
h-1,235                                          0.01 	(obj:0)
h-1,239                             0.319411774873734 	(obj:0)
h-1,240                             0.986078431606293 	(obj:0)
h-1,241                              0.23705882370472 	(obj:0)
h-1,247                                          0.01 	(obj:0)
h-1,252                                          0.01 	(obj:0)
h-1,253                                          0.01 	(obj:0)
h-1,254                                          0.01 	(obj:0)
h-1,255                                          0.01 	(obj:0)
h-1,256                                          0.01 	(obj:0)
h-1,257                                          0.01 	(obj:0)
h-1,258                                          0.01 	(obj:0)
h-1,259                                          0.01 	(obj:0)
h-1,260                                          0.01 	(obj:0)
h-1,261                                          0.01 	(obj:0)
h-1,262                                          0.01 	(obj:0)
h-1,263                                          0.01 	(obj:0)
h-1,267                             0.782156875133514 	(obj:0)
h-1,268                             0.884509811401367 	(obj:0)
h-1,269                            0.0331372560560703 	(obj:0)
h-1,271                                          0.01 	(obj:0)
h-1,279                                          0.01 	(obj:0)
h-1,280                                          0.01 	(obj:0)
h-1,281                                          0.01 	(obj:0)
h-1,282                                          0.01 	(obj:0)
h-1,283                                          0.01 	(obj:0)
h-1,285                                          0.01 	(obj:0)
h-1,286                                          0.01 	(obj:0)
h-1,287                                          0.01 	(obj:0)
h-1,288                                          0.01 	(obj:0)
h-1,289                                          0.01 	(obj:0)
h-1,290                                          0.01 	(obj:0)
h-1,291                                          0.01 	(obj:0)
h-1,294                             0.115490203499794 	(obj:0)
h-1,295                             0.986078431606293 	(obj:0)
h-1,296                             0.837058832645416 	(obj:0)
h-1,297                                          0.01 	(obj:0)
h-1,298                                          0.01 	(obj:0)
h-1,300                                          0.01 	(obj:0)
h-1,301                                          0.01 	(obj:0)
h-1,307                                          0.01 	(obj:0)
h-1,308                                          0.01 	(obj:0)
h-1,309                                          0.01 	(obj:0)
h-1,310                                          0.01 	(obj:0)
h-1,313                                          0.01 	(obj:0)
h-1,314                                          0.01 	(obj:0)
h-1,315                                          0.01 	(obj:0)
h-1,316                                          0.01 	(obj:0)
h-1,317                                          0.01 	(obj:0)
h-1,318                                          0.01 	(obj:0)
h-1,322                             0.362549027204514 	(obj:0)
h-1,323                             0.986078431606293 	(obj:0)
h-1,324                             0.754705896377563 	(obj:0)
h-1,327                                          0.01 	(obj:0)
h-1,328                                          0.01 	(obj:0)
h-1,329                                          0.01 	(obj:0)
h-1,330                                          0.01 	(obj:0)
h-1,336                                          0.01 	(obj:0)
h-1,337                                          0.01 	(obj:0)
h-1,338                                          0.01 	(obj:0)
h-1,342                                          0.01 	(obj:0)
h-1,343                                          0.01 	(obj:0)
h-1,344                                          0.01 	(obj:0)
h-1,345                                          0.01 	(obj:0)
h-1,350                             0.539019634723663 	(obj:0)
h-1,351                             0.986078431606293 	(obj:0)
h-1,352                             0.291960796117783 	(obj:0)
h-1,354                                          0.01 	(obj:0)
h-1,355                                          0.01 	(obj:0)
h-1,356                                          0.01 	(obj:0)
h-1,357                                          0.01 	(obj:0)
h-1,358                                          0.01 	(obj:0)
h-1,359                                          0.01 	(obj:0)
h-1,360                                          0.01 	(obj:0)
h-1,361                                          0.01 	(obj:0)
h-1,362                                          0.01 	(obj:0)
h-1,365                                          0.01 	(obj:0)
h-1,366                                          0.01 	(obj:0)
h-1,369                                          0.01 	(obj:0)
h-1,370                                          0.01 	(obj:0)
h-1,371                                          0.01 	(obj:0)
h-1,374                                          0.01 	(obj:0)
h-1,375                                          0.01 	(obj:0)
h-1,377                             0.213529413342476 	(obj:0)
h-1,378                             0.919411768913269 	(obj:0)
h-1,379                             0.793921580314636 	(obj:0)
h-1,380                            0.0213725508749485 	(obj:0)
h-1,382                                          0.01 	(obj:0)
h-1,383                                          0.01 	(obj:0)
h-1,384                                          0.01 	(obj:0)
h-1,385                                          0.01 	(obj:0)
h-1,386                                          0.01 	(obj:0)
h-1,387                                          0.01 	(obj:0)
h-1,388                                          0.01 	(obj:0)
h-1,389                                          0.01 	(obj:0)
h-1,390                                          0.01 	(obj:0)
h-1,391                                          0.01 	(obj:0)
h-1,394                                          0.01 	(obj:0)
h-1,396                                          0.01 	(obj:0)
h-1,397                                          0.01 	(obj:0)
h-1,398                                          0.01 	(obj:0)
h-1,399                                          0.01 	(obj:0)
h-1,400                                          0.01 	(obj:0)
h-1,401                                          0.01 	(obj:0)
h-1,402                                          0.01 	(obj:0)
h-1,403                                          0.01 	(obj:0)
h-1,405                             0.476274510622025 	(obj:0)
h-1,406                                          0.99 	(obj:0)
h-1,407                             0.637058844566345 	(obj:0)
h-1,409                                          0.01 	(obj:0)
h-1,410                                          0.01 	(obj:0)
h-1,411                                          0.01 	(obj:0)
h-1,413                                          0.01 	(obj:0)
h-1,414                                          0.01 	(obj:0)
h-1,415                                          0.01 	(obj:0)
h-1,416                                          0.01 	(obj:0)
h-1,417                                          0.01 	(obj:0)
h-1,418                                          0.01 	(obj:0)
h-1,419                                          0.01 	(obj:0)
h-1,422                                          0.01 	(obj:0)
h-1,423                                          0.01 	(obj:0)
h-1,424                                          0.01 	(obj:0)
h-1,425                                          0.01 	(obj:0)
h-1,426                                          0.01 	(obj:0)
h-1,427                                          0.01 	(obj:0)
h-1,428                                          0.01 	(obj:0)
h-1,429                                          0.01 	(obj:0)
h-1,430                                          0.01 	(obj:0)
h-1,431                                          0.01 	(obj:0)
h-1,433                             0.660588254928589 	(obj:0)
h-1,434                             0.986078431606293 	(obj:0)
h-1,435                             0.307647069692612 	(obj:0)
h-1,438                                          0.01 	(obj:0)
h-1,439                                          0.01 	(obj:0)
h-1,441                                          0.01 	(obj:0)
h-1,442                                          0.01 	(obj:0)
h-1,443                                          0.01 	(obj:0)
h-1,444                                          0.01 	(obj:0)
h-1,445                                          0.01 	(obj:0)
h-1,446                                          0.01 	(obj:0)
h-1,447                                          0.01 	(obj:0)
h-1,450                                          0.01 	(obj:0)
h-1,451                                          0.01 	(obj:0)
h-1,453                                          0.01 	(obj:0)
h-1,454                                          0.01 	(obj:0)
h-1,455                                          0.01 	(obj:0)
h-1,456                                          0.01 	(obj:0)
h-1,457                                          0.01 	(obj:0)
h-1,458                                          0.01 	(obj:0)
h-1,459                                          0.01 	(obj:0)
h-1,460                             0.104117648899555 	(obj:0)
h-1,461                             0.899803926944733 	(obj:0)
h-1,462                             0.833137264251709 	(obj:0)
h-1,463                                          0.01 	(obj:0)
h-1,464                                          0.01 	(obj:0)
h-1,465                                          0.01 	(obj:0)
h-1,467                                          0.01 	(obj:0)
h-1,468                                          0.01 	(obj:0)
h-1,469                                          0.01 	(obj:0)
h-1,470                                          0.01 	(obj:0)
h-1,471                                          0.01 	(obj:0)
h-1,472                                          0.01 	(obj:0)
h-1,473                                          0.01 	(obj:0)
h-1,474                                          0.01 	(obj:0)
h-1,475                                          0.01 	(obj:0)
h-1,478                                          0.01 	(obj:0)
h-1,479                                          0.01 	(obj:0)
h-1,481                                          0.01 	(obj:0)
h-1,482                                          0.01 	(obj:0)
h-1,483                                          0.01 	(obj:0)
h-1,484                                          0.01 	(obj:0)
h-1,485                                          0.01 	(obj:0)
h-1,486                                          0.01 	(obj:0)
h-1,487                                          0.01 	(obj:0)
h-1,488                             0.480588237047195 	(obj:0)
h-1,489                             0.986078431606293 	(obj:0)
h-1,490                             0.613529434204102 	(obj:0)
h-1,491                                          0.01 	(obj:0)
h-1,492                                          0.01 	(obj:0)
h-1,493                                          0.01 	(obj:0)
h-1,495                                          0.01 	(obj:0)
h-1,496                                          0.01 	(obj:0)
h-1,497                                          0.01 	(obj:0)
h-1,498                                          0.01 	(obj:0)
h-1,499                                          0.01 	(obj:0)
h-1,500                                          0.01 	(obj:0)
h-1,501                                          0.01 	(obj:0)
h-1,502                                          0.01 	(obj:0)
h-1,503                                          0.01 	(obj:0)
h-1,504                                          0.01 	(obj:0)
h-1,507                                          0.01 	(obj:0)
h-1,508                                          0.01 	(obj:0)
h-1,509                                          0.01 	(obj:0)
h-1,510                                          0.01 	(obj:0)
h-1,511                                          0.01 	(obj:0)
h-1,512                                          0.01 	(obj:0)
h-1,513                                          0.01 	(obj:0)
h-1,514                                          0.01 	(obj:0)
h-1,516                             0.582156887054443 	(obj:0)
h-1,517                             0.986078431606293 	(obj:0)
h-1,518                             0.546862771511078 	(obj:0)
h-1,520                                          0.01 	(obj:0)
h-1,522                                          0.01 	(obj:0)
h-1,523                                          0.01 	(obj:0)
h-1,524                                          0.01 	(obj:0)
h-1,525                                          0.01 	(obj:0)
h-1,526                                          0.01 	(obj:0)
h-1,527                                          0.01 	(obj:0)
h-1,528                                          0.01 	(obj:0)
h-1,529                                          0.01 	(obj:0)
h-1,530                                          0.01 	(obj:0)
h-1,535                                          0.01 	(obj:0)
h-1,536                                          0.01 	(obj:0)
h-1,537                                          0.01 	(obj:0)
h-1,538                                          0.01 	(obj:0)
h-1,540                                          0.01 	(obj:0)
h-1,541                                          0.01 	(obj:0)
h-1,542                                          0.01 	(obj:0)
h-1,543                                          0.01 	(obj:0)
h-1,544                             0.884117653369904 	(obj:0)
h-1,545                             0.986078431606293 	(obj:0)
h-1,546                             0.248823543787003 	(obj:0)
h-1,547                                          0.01 	(obj:0)
h-1,549                                          0.01 	(obj:0)
h-1,550                                          0.01 	(obj:0)
h-1,551                                          0.01 	(obj:0)
h-1,552                                          0.01 	(obj:0)
h-1,553                                          0.01 	(obj:0)
h-1,554                                          0.01 	(obj:0)
h-1,555                                          0.01 	(obj:0)
h-1,556                                          0.01 	(obj:0)
h-1,557                                          0.01 	(obj:0)
h-1,558                                          0.01 	(obj:0)
h-1,562                                          0.01 	(obj:0)
h-1,563                                          0.01 	(obj:0)
h-1,564                                          0.01 	(obj:0)
h-1,565                                          0.01 	(obj:0)
h-1,566                                          0.01 	(obj:0)
h-1,567                                          0.01 	(obj:0)
h-1,569                                          0.01 	(obj:0)
h-1,571                             0.249215686917305 	(obj:0)
h-1,572                             0.994313726425171 	(obj:0)
h-1,573                             0.986078431606293 	(obj:0)
h-1,574                             0.248823543787003 	(obj:0)
h-1,575                                          0.01 	(obj:0)
h-1,576                                          0.01 	(obj:0)
h-1,578                                          0.01 	(obj:0)
h-1,579                                          0.01 	(obj:0)
h-1,580                                          0.01 	(obj:0)
h-1,581                                          0.01 	(obj:0)
h-1,582                                          0.01 	(obj:0)
h-1,583                                          0.01 	(obj:0)
h-1,584                                          0.01 	(obj:0)
h-1,585                                          0.01 	(obj:0)
h-1,586                                          0.01 	(obj:0)
h-1,590                                          0.01 	(obj:0)
h-1,591                                          0.01 	(obj:0)
h-1,592                                          0.01 	(obj:0)
h-1,593                                          0.01 	(obj:0)
h-1,597                                          0.01 	(obj:0)
h-1,599                             0.562941203117371 	(obj:0)
h-1,600                                             1 	(obj:0)
h-1,601                             0.813921580314636 	(obj:0)
h-1,602                            0.0017647061124444 	(obj:0)
h-1,604                                          0.01 	(obj:0)
h-1,605                                          0.01 	(obj:0)
h-1,606                                          0.01 	(obj:0)
h-1,607                                          0.01 	(obj:0)
h-1,608                                          0.01 	(obj:0)
h-1,609                                          0.01 	(obj:0)
h-1,610                                          0.01 	(obj:0)
h-1,611                                          0.01 	(obj:0)
h-1,612                                          0.01 	(obj:0)
h-1,613                                          0.01 	(obj:0)
h-1,614                                          0.01 	(obj:0)
h-1,618                                          0.01 	(obj:0)
h-1,619                                          0.01 	(obj:0)
h-1,620                                          0.01 	(obj:0)
h-1,621                                          0.01 	(obj:0)
h-1,623                                          0.01 	(obj:0)
h-1,624                                          0.01 	(obj:0)
h-1,625                                          0.01 	(obj:0)
h-1,626                            0.0492156876623631 	(obj:0)
h-1,627                             0.853137264251709 	(obj:0)
h-1,628                             0.986078431606293 	(obj:0)
h-1,629                             0.464509805440903 	(obj:0)
h-1,631                                          0.01 	(obj:0)
h-1,632                                          0.01 	(obj:0)
h-1,634                                          0.01 	(obj:0)
h-1,635                                          0.01 	(obj:0)
h-1,636                                          0.01 	(obj:0)
h-1,637                                          0.01 	(obj:0)
h-1,638                                          0.01 	(obj:0)
h-1,640                                          0.01 	(obj:0)
h-1,641                                          0.01 	(obj:0)
h-1,642                                          0.01 	(obj:0)
h-1,646                                          0.01 	(obj:0)
h-1,647                                          0.01 	(obj:0)
h-1,648                                          0.01 	(obj:0)
h-1,651                                          0.01 	(obj:0)
h-1,653                                          0.01 	(obj:0)
h-1,654                           0.00960784383118152 	(obj:0)
h-1,655                             0.786470601558685 	(obj:0)
h-1,656                             0.680196096897125 	(obj:0)
h-1,657                            0.0292156876623631 	(obj:0)
h-1,659                                          0.01 	(obj:0)
h-1,662                                          0.01 	(obj:0)
h-1,663                                          0.01 	(obj:0)
h-1,664                                          0.01 	(obj:0)
h-1,665                                          0.01 	(obj:0)
h-1,666                                          0.01 	(obj:0)
h-1,674                                          0.01 	(obj:0)
h-1,675                                          0.01 	(obj:0)
h-1,676                                          0.01 	(obj:0)
h-1,683                                          0.01 	(obj:0)
h-1,684                                          0.01 	(obj:0)
h-1,685                                          0.01 	(obj:0)
h-1,686                                          0.01 	(obj:0)
h-1,688                                          0.01 	(obj:0)
h-1,689                                          0.01 	(obj:0)
h-1,690                                          0.01 	(obj:0)
h-1,691                                          0.01 	(obj:0)
h-1,693                                          0.01 	(obj:0)
h-1,696                                          0.01 	(obj:0)
h-1,697                                          0.01 	(obj:0)
h-1,698                                          0.01 	(obj:0)
h-1,703                                          0.01 	(obj:0)
h-1,704                                          0.01 	(obj:0)
h-1,706                                          0.01 	(obj:0)
h-1,707                                          0.01 	(obj:0)
h-1,710                                          0.01 	(obj:0)
h-1,713                                          0.01 	(obj:0)
h-1,725                                          0.01 	(obj:0)
h-1,726                                          0.01 	(obj:0)
h-1,761                                          0.01 	(obj:0)
h-1,762                                          0.01 	(obj:0)
h-1,767                                          0.01 	(obj:0)
h-1,768                                          0.01 	(obj:0)
h-1,769                                          0.01 	(obj:0)
h-1,772                                          0.01 	(obj:0)
h-1,773                                          0.01 	(obj:0)
z0,0                               -0.100328360163174 	(obj:0)
a0,0                                0.644244908308403 	(obj:0)
z0,1                                 6.54258160634549 	(obj:0)
a0,1                                  6.5440195447874 	(obj:0)
z0,2                                 5.21331332989451 	(obj:0)
a0,2                                 5.21874385293005 	(obj:0)
z0,3                                 1.00496590587924 	(obj:0)
a0,3                                  1.3168983466704 	(obj:0)
z0,4                                 3.62799747840084 	(obj:0)
a0,4                                 3.65421518419992 	(obj:0)
z0,5                                -2.59380538739642 	(obj:0)
a0,5                               0.0720650316664225 	(obj:0)
z0,6                               -0.626568219222077 	(obj:0)
a0,6                                0.428156230016839 	(obj:0)
z0,7                               -0.506080005450834 	(obj:0)
a0,7                                0.471788013898876 	(obj:0)
z0,8                                -1.54978876293703 	(obj:0)
a0,8                                0.192520193041635 	(obj:0)
z0,9                              -0.0433997105413731 	(obj:0)
a0,9                                0.671688482391259 	(obj:0)
z1,0                                -5.30109029986928 	(obj:0)
a1,0                              0.00497271588421832 	(obj:0)
z1,1                                 7.18590917783548 	(obj:0)
a1,1                                 7.18665821493624 	(obj:-1)
z1,2                                 1.84823272816052 	(obj:0)
a1,2                                 1.99451308973557 	(obj:1)
z1,3                                 1.79157141700775 	(obj:0)
a1,3                                 1.94574692376758 	(obj:0)
z1,4                                -2.90844043993764 	(obj:0)
a1,4                               0.0531224190332423 	(obj:0)
z1,5                                 1.12782386063869 	(obj:0)
a1,5                                 1.40827497144596 	(obj:0)
z1,6                                0.309719832890454 	(obj:0)
a1,6                                0.859947566269381 	(obj:0)
z1,7                                 2.00915259582824 	(obj:0)
a1,7                                 2.13499639192132 	(obj:0)
z1,8                                 2.44153179502688 	(obj:0)
a1,8                                 2.52497263559922 	(obj:0)
z1,9                                -1.91831883327156 	(obj:0)
a1,9                                0.137013116790206 	(obj:0)
